;; translated from ./lustre/durationThm_3_e7_334_e7_118.vmt
;; original benchmark available at: https://es-static.fbk.eu/people/griggio/ic3ia/index.html
;; author: Alberto Griggio <griggio@fbk.eu>
(set-logic HORN)
(declare-fun state (Int Int Bool Bool Int Int Int Int Bool Int Int Int Int Bool Int Int Bool Bool Int Int Int) Bool)
(assert (forall ((|param_k0__AT0| Int) (|call_Age.xite__AT0| Int) (|call_Age2.xite__AT0| Int) (|call_Age3.xite__AT0| Int) (|param_p__AT1| Bool) (|param_k0__AT1| Int) (|param_m0__AT1| Int) (|call_Sofar.flby__AT0| Bool) (|flby__AT0| Int) (|param_m0__AT0| Int) (|flby2__AT0| Int) (|call_Age.flby__AT0| Int) (|call_Age2.flby__AT0| Int) (|call_Age3.flby__AT0| Int) (|_OK___AT0| Bool) (|env__AT0| Bool) (|call_Age3.age_of_p__AT0| Int) (|call_Sofar.Sofar__AT0| Bool) (|flby__AT1| Int) (|flby2__AT1| Int) (|call_Age.xite__AT1| Int) (|param_p__AT0| Bool) (|call_Age3.xite__AT1| Int) (|call_Age2.xite__AT1| Int) (|call_Age.flby__AT1| Int) (|call_Age2.flby__AT1| Int) (|param_q__AT1| Bool) (|call_Age.age_of_p__AT1| Int) (|k__AT1| Int) (|m__AT1| Int) (|call_Age2.age_of_p__AT1| Int) (|call_Sofar.flby__AT1| Bool) (|call_Age3.flby__AT1| Int) (|_OK___AT1| Bool) (|env__AT1| Bool) (|call_Age3.age_of_p__AT1| Int) (|call_Sofar.Sofar__AT1| Bool) (|param_q__AT0| Bool) (|call_Age.age_of_p__AT0| Int) (|k__AT0| Int) (|m__AT0| Int) (|call_Age2.age_of_p__AT0| Int)) (=> (let ((.def_65 (<= k__AT0 call_Age.age_of_p__AT0)))
(let ((.def_66 (not .def_65)))
(let ((.def_68 (or .def_66 param_q__AT0)))
(let ((.def_63 (<= 1 k__AT0)))
(let ((.def_62 (<= 1 m__AT0)))
(let ((.def_64 (or .def_62 .def_63)))
(let ((.def_69 (and .def_64 .def_68)))
(let ((.def_61 (<= call_Age2.age_of_p__AT0 m__AT0)))
(let ((.def_70 (and .def_61 .def_69)))
(let ((.def_71 (= call_Sofar.flby__AT0 .def_70)))
(let ((.def_57 (= flby__AT0 param_k0__AT0)))
(let ((.def_55 (= flby2__AT0 param_m0__AT0)))
(let ((.def_58 (and .def_55 .def_57)))
(let ((.def_53 (= call_Age.flby__AT0 0)))
(let ((.def_59 (and .def_53 .def_58)))
(let ((.def_52 (= call_Age2.flby__AT0 0)))
(let ((.def_60 (and .def_52 .def_59)))
(let ((.def_72 (and .def_60 .def_71)))
(let ((.def_51 (= call_Age3.flby__AT0 0)))
(let ((.def_73 (and .def_51 .def_72)))
(let ((.def_40 (not env__AT0)))
(let ((.def_35 (* (- 1) k__AT0)))
(let ((.def_36 (* (- 1) m__AT0)))
(let ((.def_37 (+ .def_36 .def_35)))
(let ((.def_38 (+ call_Age3.age_of_p__AT0 .def_37)))
(let ((.def_39 (<= .def_38 0)))
(let ((.def_41 (or .def_39 .def_40)))
(let ((.def_43 (= .def_41 _OK___AT0)))
(let ((.def_28 (= flby__AT0 k__AT0)))
(let ((.def_44 (and .def_28 .def_43)))
(let ((.def_25 (= flby2__AT0 m__AT0)))
(let ((.def_45 (and .def_25 .def_44)))
(let ((.def_22 (= call_Sofar.Sofar__AT0 env__AT0)))
(let ((.def_46 (and .def_22 .def_45)))
(let ((.def_20 (= call_Age.flby__AT0 call_Age.age_of_p__AT0)))
(let ((.def_47 (and .def_20 .def_46)))
(let ((.def_17 (= call_Age2.flby__AT0 call_Age2.age_of_p__AT0)))
(let ((.def_48 (and .def_17 .def_47)))
(let ((.def_14 (= call_Sofar.flby__AT0 call_Sofar.Sofar__AT0)))
(let ((.def_49 (and .def_14 .def_48)))
(let ((.def_11 (= call_Age3.flby__AT0 call_Age3.age_of_p__AT0)))
(let ((.def_50 (and .def_11 .def_49)))
(let ((.def_74 (and .def_50 .def_73)))
.def_74))))))))))))))))))))))))))))))))))))))))))) (state |call_Age3.flby__AT0| |call_Age3.age_of_p__AT0| |call_Sofar.flby__AT0| |call_Sofar.Sofar__AT0| |call_Age2.flby__AT0| |call_Age2.age_of_p__AT0| |call_Age.flby__AT0| |call_Age.age_of_p__AT0| |env__AT0| |flby2__AT0| |m__AT0| |flby__AT0| |k__AT0| |_OK___AT0| |param_m0__AT0| |param_k0__AT0| |param_q__AT0| |param_p__AT0| |call_Age.xite__AT0| |call_Age2.xite__AT0| |call_Age3.xite__AT0|))))
(assert (forall ((|param_k0__AT0| Int) (|call_Age.xite__AT0| Int) (|call_Age2.xite__AT0| Int) (|call_Age3.xite__AT0| Int) (|param_p__AT1| Bool) (|param_k0__AT1| Int) (|param_m0__AT1| Int) (|call_Sofar.flby__AT0| Bool) (|flby__AT0| Int) (|param_m0__AT0| Int) (|flby2__AT0| Int) (|call_Age.flby__AT0| Int) (|call_Age2.flby__AT0| Int) (|call_Age3.flby__AT0| Int) (|_OK___AT0| Bool) (|env__AT0| Bool) (|call_Age3.age_of_p__AT0| Int) (|call_Sofar.Sofar__AT0| Bool) (|flby__AT1| Int) (|flby2__AT1| Int) (|call_Age.xite__AT1| Int) (|param_p__AT0| Bool) (|call_Age3.xite__AT1| Int) (|call_Age2.xite__AT1| Int) (|call_Age.flby__AT1| Int) (|call_Age2.flby__AT1| Int) (|param_q__AT1| Bool) (|call_Age.age_of_p__AT1| Int) (|k__AT1| Int) (|m__AT1| Int) (|call_Age2.age_of_p__AT1| Int) (|call_Sofar.flby__AT1| Bool) (|call_Age3.flby__AT1| Int) (|_OK___AT1| Bool) (|env__AT1| Bool) (|call_Age3.age_of_p__AT1| Int) (|call_Sofar.Sofar__AT1| Bool) (|param_q__AT0| Bool) (|call_Age.age_of_p__AT0| Int) (|k__AT0| Int) (|m__AT0| Int) (|call_Age2.age_of_p__AT0| Int)) (=> (and (state |call_Age3.flby__AT0| |call_Age3.age_of_p__AT0| |call_Sofar.flby__AT0| |call_Sofar.Sofar__AT0| |call_Age2.flby__AT0| |call_Age2.age_of_p__AT0| |call_Age.flby__AT0| |call_Age.age_of_p__AT0| |env__AT0| |flby2__AT0| |m__AT0| |flby__AT0| |k__AT0| |_OK___AT0| |param_m0__AT0| |param_k0__AT0| |param_q__AT0| |param_p__AT0| |call_Age.xite__AT0| |call_Age2.xite__AT0| |call_Age3.xite__AT0|) (let ((.def_159 (= k__AT0 flby__AT1)))
(let ((.def_158 (= m__AT0 flby2__AT1)))
(let ((.def_160 (and .def_158 .def_159)))
(let ((.def_153 (= call_Age.xite__AT1 0)))
(let ((.def_154 (or param_p__AT0 .def_153)))
(let ((.def_149 (* (- 1) call_Age.xite__AT1)))
(let ((.def_150 (+ call_Age.age_of_p__AT0 .def_149)))
(let ((.def_151 (= .def_150 (- 1))))
(let ((.def_147 (not param_p__AT0)))
(let ((.def_152 (or .def_147 .def_151)))
(let ((.def_155 (and .def_152 .def_154)))
(let ((.def_144 (* (- 1) call_Age3.xite__AT1)))
(let ((.def_145 (+ call_Age3.age_of_p__AT0 .def_144)))
(let ((.def_146 (= .def_145 (- 1))))
(let ((.def_148 (or .def_146 .def_147)))
(let ((.def_156 (and .def_148 .def_155)))
(let ((.def_141 (= call_Age3.xite__AT1 0)))
(let ((.def_143 (or .def_141 param_p__AT0)))
(let ((.def_157 (and .def_143 .def_156)))
(let ((.def_161 (and .def_157 .def_160)))
(let ((.def_138 (= call_Age2.xite__AT1 0)))
(let ((.def_139 (or param_q__AT0 .def_138)))
(let ((.def_134 (* (- 1) call_Age2.xite__AT1)))
(let ((.def_135 (+ call_Age2.age_of_p__AT0 .def_134)))
(let ((.def_136 (= .def_135 (- 1))))
(let ((.def_133 (not param_q__AT0)))
(let ((.def_137 (or .def_133 .def_136)))
(let ((.def_140 (and .def_137 .def_139)))
(let ((.def_162 (and .def_140 .def_161)))
(let ((.def_132 (= call_Age.flby__AT1 call_Age.xite__AT1)))
(let ((.def_163 (and .def_132 .def_162)))
(let ((.def_130 (= call_Age2.flby__AT1 call_Age2.xite__AT1)))
(let ((.def_164 (and .def_130 .def_163)))
(let ((.def_121 (<= k__AT1 call_Age.age_of_p__AT1)))
(let ((.def_122 (not .def_121)))
(let ((.def_124 (or .def_122 param_q__AT1)))
(let ((.def_119 (<= 1 k__AT1)))
(let ((.def_118 (<= 1 m__AT1)))
(let ((.def_120 (or .def_118 .def_119)))
(let ((.def_125 (and .def_120 .def_124)))
(let ((.def_117 (<= call_Age2.age_of_p__AT1 m__AT1)))
(let ((.def_126 (and .def_117 .def_125)))
(let ((.def_127 (or call_Sofar.Sofar__AT0 .def_126)))
(let ((.def_128 (= call_Sofar.flby__AT1 .def_127)))
(let ((.def_165 (and .def_128 .def_164)))
(let ((.def_116 (= call_Age3.flby__AT1 call_Age3.xite__AT1)))
(let ((.def_166 (and .def_116 .def_165)))
(let ((.def_103 (not env__AT1)))
(let ((.def_98 (* (- 1) k__AT1)))
(let ((.def_99 (* (- 1) m__AT1)))
(let ((.def_100 (+ .def_99 .def_98)))
(let ((.def_101 (+ call_Age3.age_of_p__AT1 .def_100)))
(let ((.def_102 (<= .def_101 0)))
(let ((.def_104 (or .def_102 .def_103)))
(let ((.def_106 (= .def_104 _OK___AT1)))
(let ((.def_94 (= k__AT1 flby__AT1)))
(let ((.def_107 (and .def_94 .def_106)))
(let ((.def_91 (= m__AT1 flby2__AT1)))
(let ((.def_108 (and .def_91 .def_107)))
(let ((.def_88 (= call_Sofar.Sofar__AT1 env__AT1)))
(let ((.def_109 (and .def_88 .def_108)))
(let ((.def_86 (= call_Age.age_of_p__AT1 call_Age.flby__AT1)))
(let ((.def_110 (and .def_86 .def_109)))
(let ((.def_83 (= call_Age2.age_of_p__AT1 call_Age2.flby__AT1)))
(let ((.def_111 (and .def_83 .def_110)))
(let ((.def_80 (= call_Sofar.Sofar__AT1 call_Sofar.flby__AT1)))
(let ((.def_112 (and .def_80 .def_111)))
(let ((.def_77 (= call_Age3.age_of_p__AT1 call_Age3.flby__AT1)))
(let ((.def_113 (and .def_77 .def_112)))
(let ((.def_40 (not env__AT0)))
(let ((.def_35 (* (- 1) k__AT0)))
(let ((.def_36 (* (- 1) m__AT0)))
(let ((.def_37 (+ .def_36 .def_35)))
(let ((.def_38 (+ call_Age3.age_of_p__AT0 .def_37)))
(let ((.def_39 (<= .def_38 0)))
(let ((.def_41 (or .def_39 .def_40)))
(let ((.def_43 (= .def_41 _OK___AT0)))
(let ((.def_28 (= flby__AT0 k__AT0)))
(let ((.def_44 (and .def_28 .def_43)))
(let ((.def_25 (= flby2__AT0 m__AT0)))
(let ((.def_45 (and .def_25 .def_44)))
(let ((.def_22 (= call_Sofar.Sofar__AT0 env__AT0)))
(let ((.def_46 (and .def_22 .def_45)))
(let ((.def_20 (= call_Age.flby__AT0 call_Age.age_of_p__AT0)))
(let ((.def_47 (and .def_20 .def_46)))
(let ((.def_17 (= call_Age2.flby__AT0 call_Age2.age_of_p__AT0)))
(let ((.def_48 (and .def_17 .def_47)))
(let ((.def_14 (= call_Sofar.flby__AT0 call_Sofar.Sofar__AT0)))
(let ((.def_49 (and .def_14 .def_48)))
(let ((.def_11 (= call_Age3.flby__AT0 call_Age3.age_of_p__AT0)))
(let ((.def_50 (and .def_11 .def_49)))
(let ((.def_114 (and .def_50 .def_113)))
(let ((.def_167 (and .def_114 .def_166)))
.def_167)))))))))))))))))))))))))))))))))))))))))))))))))))))))))))))))))))))))))))))))))))))))))))))) (state |call_Age3.flby__AT1| |call_Age3.age_of_p__AT1| |call_Sofar.flby__AT1| |call_Sofar.Sofar__AT1| |call_Age2.flby__AT1| |call_Age2.age_of_p__AT1| |call_Age.flby__AT1| |call_Age.age_of_p__AT1| |env__AT1| |flby2__AT1| |m__AT1| |flby__AT1| |k__AT1| |_OK___AT1| |param_m0__AT1| |param_k0__AT1| |param_q__AT1| |param_p__AT1| |call_Age.xite__AT1| |call_Age2.xite__AT1| |call_Age3.xite__AT1|))))
(assert (forall ((|param_k0__AT0| Int) (|call_Age.xite__AT0| Int) (|call_Age2.xite__AT0| Int) (|call_Age3.xite__AT0| Int) (|param_p__AT1| Bool) (|param_k0__AT1| Int) (|param_m0__AT1| Int) (|call_Sofar.flby__AT0| Bool) (|flby__AT0| Int) (|param_m0__AT0| Int) (|flby2__AT0| Int) (|call_Age.flby__AT0| Int) (|call_Age2.flby__AT0| Int) (|call_Age3.flby__AT0| Int) (|_OK___AT0| Bool) (|env__AT0| Bool) (|call_Age3.age_of_p__AT0| Int) (|call_Sofar.Sofar__AT0| Bool) (|flby__AT1| Int) (|flby2__AT1| Int) (|call_Age.xite__AT1| Int) (|param_p__AT0| Bool) (|call_Age3.xite__AT1| Int) (|call_Age2.xite__AT1| Int) (|call_Age.flby__AT1| Int) (|call_Age2.flby__AT1| Int) (|param_q__AT1| Bool) (|call_Age.age_of_p__AT1| Int) (|k__AT1| Int) (|m__AT1| Int) (|call_Age2.age_of_p__AT1| Int) (|call_Sofar.flby__AT1| Bool) (|call_Age3.flby__AT1| Int) (|_OK___AT1| Bool) (|env__AT1| Bool) (|call_Age3.age_of_p__AT1| Int) (|call_Sofar.Sofar__AT1| Bool) (|param_q__AT0| Bool) (|call_Age.age_of_p__AT0| Int) (|k__AT0| Int) (|m__AT0| Int) (|call_Age2.age_of_p__AT0| Int)) (=> (state |call_Age3.flby__AT0| |call_Age3.age_of_p__AT0| |call_Sofar.flby__AT0| |call_Sofar.Sofar__AT0| |call_Age2.flby__AT0| |call_Age2.age_of_p__AT0| |call_Age.flby__AT0| |call_Age.age_of_p__AT0| |env__AT0| |flby2__AT0| |m__AT0| |flby__AT0| |k__AT0| |_OK___AT0| |param_m0__AT0| |param_k0__AT0| |param_q__AT0| |param_p__AT0| |call_Age.xite__AT0| |call_Age2.xite__AT0| |call_Age3.xite__AT0|) _OK___AT0)))
(check-sat)
